db/data/544417724313053342464731524131156284.z3.out
sat
-------------------
136.415503885
